c graph colorability of graph:
c .
c
c Generated with `cnfgen`
c (C) 2012-2019 Massimo Lauria <massimo.lauria@uniroma1.it>
c https://massimolauria.net/cnfgen
c
c COMMAND LINE: cnfgen --seed 1 -o ./kcolor/kcolor.grid9.s1.k4.cnf kcolor --grid 9 9 --savegraph ./kcolor/kcolor.grid9.s1.graph --graphformat dot 4
c
p cnf 324 1143
1 2 3 4 0
-1 -2 0
-1 -3 0
-1 -4 0
-2 -3 0
-2 -4 0
-3 -4 0
5 6 7 8 0
-5 -6 0
-5 -7 0
-5 -8 0
-6 -7 0
-6 -8 0
-7 -8 0
9 10 11 12 0
-9 -10 0
-9 -11 0
-9 -12 0
-10 -11 0
-10 -12 0
-11 -12 0
13 14 15 16 0
-13 -14 0
-13 -15 0
-13 -16 0
-14 -15 0
-14 -16 0
-15 -16 0
17 18 19 20 0
-17 -18 0
-17 -19 0
-17 -20 0
-18 -19 0
-18 -20 0
-19 -20 0
21 22 23 24 0
-21 -22 0
-21 -23 0
-21 -24 0
-22 -23 0
-22 -24 0
-23 -24 0
25 26 27 28 0
-25 -26 0
-25 -27 0
-25 -28 0
-26 -27 0
-26 -28 0
-27 -28 0
29 30 31 32 0
-29 -30 0
-29 -31 0
-29 -32 0
-30 -31 0
-30 -32 0
-31 -32 0
33 34 35 36 0
-33 -34 0
-33 -35 0
-33 -36 0
-34 -35 0
-34 -36 0
-35 -36 0
37 38 39 40 0
-37 -38 0
-37 -39 0
-37 -40 0
-38 -39 0
-38 -40 0
-39 -40 0
41 42 43 44 0
-41 -42 0
-41 -43 0
-41 -44 0
-42 -43 0
-42 -44 0
-43 -44 0
45 46 47 48 0
-45 -46 0
-45 -47 0
-45 -48 0
-46 -47 0
-46 -48 0
-47 -48 0
49 50 51 52 0
-49 -50 0
-49 -51 0
-49 -52 0
-50 -51 0
-50 -52 0
-51 -52 0
53 54 55 56 0
-53 -54 0
-53 -55 0
-53 -56 0
-54 -55 0
-54 -56 0
-55 -56 0
57 58 59 60 0
-57 -58 0
-57 -59 0
-57 -60 0
-58 -59 0
-58 -60 0
-59 -60 0
61 62 63 64 0
-61 -62 0
-61 -63 0
-61 -64 0
-62 -63 0
-62 -64 0
-63 -64 0
65 66 67 68 0
-65 -66 0
-65 -67 0
-65 -68 0
-66 -67 0
-66 -68 0
-67 -68 0
69 70 71 72 0
-69 -70 0
-69 -71 0
-69 -72 0
-70 -71 0
-70 -72 0
-71 -72 0
73 74 75 76 0
-73 -74 0
-73 -75 0
-73 -76 0
-74 -75 0
-74 -76 0
-75 -76 0
77 78 79 80 0
-77 -78 0
-77 -79 0
-77 -80 0
-78 -79 0
-78 -80 0
-79 -80 0
81 82 83 84 0
-81 -82 0
-81 -83 0
-81 -84 0
-82 -83 0
-82 -84 0
-83 -84 0
85 86 87 88 0
-85 -86 0
-85 -87 0
-85 -88 0
-86 -87 0
-86 -88 0
-87 -88 0
89 90 91 92 0
-89 -90 0
-89 -91 0
-89 -92 0
-90 -91 0
-90 -92 0
-91 -92 0
93 94 95 96 0
-93 -94 0
-93 -95 0
-93 -96 0
-94 -95 0
-94 -96 0
-95 -96 0
97 98 99 100 0
-97 -98 0
-97 -99 0
-97 -100 0
-98 -99 0
-98 -100 0
-99 -100 0
101 102 103 104 0
-101 -102 0
-101 -103 0
-101 -104 0
-102 -103 0
-102 -104 0
-103 -104 0
105 106 107 108 0
-105 -106 0
-105 -107 0
-105 -108 0
-106 -107 0
-106 -108 0
-107 -108 0
109 110 111 112 0
-109 -110 0
-109 -111 0
-109 -112 0
-110 -111 0
-110 -112 0
-111 -112 0
113 114 115 116 0
-113 -114 0
-113 -115 0
-113 -116 0
-114 -115 0
-114 -116 0
-115 -116 0
117 118 119 120 0
-117 -118 0
-117 -119 0
-117 -120 0
-118 -119 0
-118 -120 0
-119 -120 0
121 122 123 124 0
-121 -122 0
-121 -123 0
-121 -124 0
-122 -123 0
-122 -124 0
-123 -124 0
125 126 127 128 0
-125 -126 0
-125 -127 0
-125 -128 0
-126 -127 0
-126 -128 0
-127 -128 0
129 130 131 132 0
-129 -130 0
-129 -131 0
-129 -132 0
-130 -131 0
-130 -132 0
-131 -132 0
133 134 135 136 0
-133 -134 0
-133 -135 0
-133 -136 0
-134 -135 0
-134 -136 0
-135 -136 0
137 138 139 140 0
-137 -138 0
-137 -139 0
-137 -140 0
-138 -139 0
-138 -140 0
-139 -140 0
141 142 143 144 0
-141 -142 0
-141 -143 0
-141 -144 0
-142 -143 0
-142 -144 0
-143 -144 0
145 146 147 148 0
-145 -146 0
-145 -147 0
-145 -148 0
-146 -147 0
-146 -148 0
-147 -148 0
149 150 151 152 0
-149 -150 0
-149 -151 0
-149 -152 0
-150 -151 0
-150 -152 0
-151 -152 0
153 154 155 156 0
-153 -154 0
-153 -155 0
-153 -156 0
-154 -155 0
-154 -156 0
-155 -156 0
157 158 159 160 0
-157 -158 0
-157 -159 0
-157 -160 0
-158 -159 0
-158 -160 0
-159 -160 0
161 162 163 164 0
-161 -162 0
-161 -163 0
-161 -164 0
-162 -163 0
-162 -164 0
-163 -164 0
165 166 167 168 0
-165 -166 0
-165 -167 0
-165 -168 0
-166 -167 0
-166 -168 0
-167 -168 0
169 170 171 172 0
-169 -170 0
-169 -171 0
-169 -172 0
-170 -171 0
-170 -172 0
-171 -172 0
173 174 175 176 0
-173 -174 0
-173 -175 0
-173 -176 0
-174 -175 0
-174 -176 0
-175 -176 0
177 178 179 180 0
-177 -178 0
-177 -179 0
-177 -180 0
-178 -179 0
-178 -180 0
-179 -180 0
181 182 183 184 0
-181 -182 0
-181 -183 0
-181 -184 0
-182 -183 0
-182 -184 0
-183 -184 0
185 186 187 188 0
-185 -186 0
-185 -187 0
-185 -188 0
-186 -187 0
-186 -188 0
-187 -188 0
189 190 191 192 0
-189 -190 0
-189 -191 0
-189 -192 0
-190 -191 0
-190 -192 0
-191 -192 0
193 194 195 196 0
-193 -194 0
-193 -195 0
-193 -196 0
-194 -195 0
-194 -196 0
-195 -196 0
197 198 199 200 0
-197 -198 0
-197 -199 0
-197 -200 0
-198 -199 0
-198 -200 0
-199 -200 0
201 202 203 204 0
-201 -202 0
-201 -203 0
-201 -204 0
-202 -203 0
-202 -204 0
-203 -204 0
205 206 207 208 0
-205 -206 0
-205 -207 0
-205 -208 0
-206 -207 0
-206 -208 0
-207 -208 0
209 210 211 212 0
-209 -210 0
-209 -211 0
-209 -212 0
-210 -211 0
-210 -212 0
-211 -212 0
213 214 215 216 0
-213 -214 0
-213 -215 0
-213 -216 0
-214 -215 0
-214 -216 0
-215 -216 0
217 218 219 220 0
-217 -218 0
-217 -219 0
-217 -220 0
-218 -219 0
-218 -220 0
-219 -220 0
221 222 223 224 0
-221 -222 0
-221 -223 0
-221 -224 0
-222 -223 0
-222 -224 0
-223 -224 0
225 226 227 228 0
-225 -226 0
-225 -227 0
-225 -228 0
-226 -227 0
-226 -228 0
-227 -228 0
229 230 231 232 0
-229 -230 0
-229 -231 0
-229 -232 0
-230 -231 0
-230 -232 0
-231 -232 0
233 234 235 236 0
-233 -234 0
-233 -235 0
-233 -236 0
-234 -235 0
-234 -236 0
-235 -236 0
237 238 239 240 0
-237 -238 0
-237 -239 0
-237 -240 0
-238 -239 0
-238 -240 0
-239 -240 0
241 242 243 244 0
-241 -242 0
-241 -243 0
-241 -244 0
-242 -243 0
-242 -244 0
-243 -244 0
245 246 247 248 0
-245 -246 0
-245 -247 0
-245 -248 0
-246 -247 0
-246 -248 0
-247 -248 0
249 250 251 252 0
-249 -250 0
-249 -251 0
-249 -252 0
-250 -251 0
-250 -252 0
-251 -252 0
253 254 255 256 0
-253 -254 0
-253 -255 0
-253 -256 0
-254 -255 0
-254 -256 0
-255 -256 0
257 258 259 260 0
-257 -258 0
-257 -259 0
-257 -260 0
-258 -259 0
-258 -260 0
-259 -260 0
261 262 263 264 0
-261 -262 0
-261 -263 0
-261 -264 0
-262 -263 0
-262 -264 0
-263 -264 0
265 266 267 268 0
-265 -266 0
-265 -267 0
-265 -268 0
-266 -267 0
-266 -268 0
-267 -268 0
269 270 271 272 0
-269 -270 0
-269 -271 0
-269 -272 0
-270 -271 0
-270 -272 0
-271 -272 0
273 274 275 276 0
-273 -274 0
-273 -275 0
-273 -276 0
-274 -275 0
-274 -276 0
-275 -276 0
277 278 279 280 0
-277 -278 0
-277 -279 0
-277 -280 0
-278 -279 0
-278 -280 0
-279 -280 0
281 282 283 284 0
-281 -282 0
-281 -283 0
-281 -284 0
-282 -283 0
-282 -284 0
-283 -284 0
285 286 287 288 0
-285 -286 0
-285 -287 0
-285 -288 0
-286 -287 0
-286 -288 0
-287 -288 0
289 290 291 292 0
-289 -290 0
-289 -291 0
-289 -292 0
-290 -291 0
-290 -292 0
-291 -292 0
293 294 295 296 0
-293 -294 0
-293 -295 0
-293 -296 0
-294 -295 0
-294 -296 0
-295 -296 0
297 298 299 300 0
-297 -298 0
-297 -299 0
-297 -300 0
-298 -299 0
-298 -300 0
-299 -300 0
301 302 303 304 0
-301 -302 0
-301 -303 0
-301 -304 0
-302 -303 0
-302 -304 0
-303 -304 0
305 306 307 308 0
-305 -306 0
-305 -307 0
-305 -308 0
-306 -307 0
-306 -308 0
-307 -308 0
309 310 311 312 0
-309 -310 0
-309 -311 0
-309 -312 0
-310 -311 0
-310 -312 0
-311 -312 0
313 314 315 316 0
-313 -314 0
-313 -315 0
-313 -316 0
-314 -315 0
-314 -316 0
-315 -316 0
317 318 319 320 0
-317 -318 0
-317 -319 0
-317 -320 0
-318 -319 0
-318 -320 0
-319 -320 0
321 322 323 324 0
-321 -322 0
-321 -323 0
-321 -324 0
-322 -323 0
-322 -324 0
-323 -324 0
-1 -5 0
-2 -6 0
-3 -7 0
-4 -8 0
-1 -37 0
-2 -38 0
-3 -39 0
-4 -40 0
-5 -9 0
-6 -10 0
-7 -11 0
-8 -12 0
-5 -41 0
-6 -42 0
-7 -43 0
-8 -44 0
-9 -13 0
-10 -14 0
-11 -15 0
-12 -16 0
-9 -45 0
-10 -46 0
-11 -47 0
-12 -48 0
-13 -17 0
-14 -18 0
-15 -19 0
-16 -20 0
-13 -49 0
-14 -50 0
-15 -51 0
-16 -52 0
-17 -21 0
-18 -22 0
-19 -23 0
-20 -24 0
-17 -53 0
-18 -54 0
-19 -55 0
-20 -56 0
-21 -25 0
-22 -26 0
-23 -27 0
-24 -28 0
-21 -57 0
-22 -58 0
-23 -59 0
-24 -60 0
-25 -29 0
-26 -30 0
-27 -31 0
-28 -32 0
-25 -61 0
-26 -62 0
-27 -63 0
-28 -64 0
-29 -33 0
-30 -34 0
-31 -35 0
-32 -36 0
-29 -65 0
-30 -66 0
-31 -67 0
-32 -68 0
-33 -69 0
-34 -70 0
-35 -71 0
-36 -72 0
-37 -41 0
-38 -42 0
-39 -43 0
-40 -44 0
-37 -73 0
-38 -74 0
-39 -75 0
-40 -76 0
-41 -45 0
-42 -46 0
-43 -47 0
-44 -48 0
-41 -77 0
-42 -78 0
-43 -79 0
-44 -80 0
-45 -49 0
-46 -50 0
-47 -51 0
-48 -52 0
-45 -81 0
-46 -82 0
-47 -83 0
-48 -84 0
-49 -53 0
-50 -54 0
-51 -55 0
-52 -56 0
-49 -85 0
-50 -86 0
-51 -87 0
-52 -88 0
-53 -57 0
-54 -58 0
-55 -59 0
-56 -60 0
-53 -89 0
-54 -90 0
-55 -91 0
-56 -92 0
-57 -61 0
-58 -62 0
-59 -63 0
-60 -64 0
-57 -93 0
-58 -94 0
-59 -95 0
-60 -96 0
-61 -65 0
-62 -66 0
-63 -67 0
-64 -68 0
-61 -97 0
-62 -98 0
-63 -99 0
-64 -100 0
-65 -69 0
-66 -70 0
-67 -71 0
-68 -72 0
-65 -101 0
-66 -102 0
-67 -103 0
-68 -104 0
-69 -105 0
-70 -106 0
-71 -107 0
-72 -108 0
-73 -77 0
-74 -78 0
-75 -79 0
-76 -80 0
-73 -109 0
-74 -110 0
-75 -111 0
-76 -112 0
-77 -81 0
-78 -82 0
-79 -83 0
-80 -84 0
-77 -113 0
-78 -114 0
-79 -115 0
-80 -116 0
-81 -85 0
-82 -86 0
-83 -87 0
-84 -88 0
-81 -117 0
-82 -118 0
-83 -119 0
-84 -120 0
-85 -89 0
-86 -90 0
-87 -91 0
-88 -92 0
-85 -121 0
-86 -122 0
-87 -123 0
-88 -124 0
-89 -93 0
-90 -94 0
-91 -95 0
-92 -96 0
-89 -125 0
-90 -126 0
-91 -127 0
-92 -128 0
-93 -97 0
-94 -98 0
-95 -99 0
-96 -100 0
-93 -129 0
-94 -130 0
-95 -131 0
-96 -132 0
-97 -101 0
-98 -102 0
-99 -103 0
-100 -104 0
-97 -133 0
-98 -134 0
-99 -135 0
-100 -136 0
-101 -105 0
-102 -106 0
-103 -107 0
-104 -108 0
-101 -137 0
-102 -138 0
-103 -139 0
-104 -140 0
-105 -141 0
-106 -142 0
-107 -143 0
-108 -144 0
-109 -113 0
-110 -114 0
-111 -115 0
-112 -116 0
-109 -145 0
-110 -146 0
-111 -147 0
-112 -148 0
-113 -117 0
-114 -118 0
-115 -119 0
-116 -120 0
-113 -149 0
-114 -150 0
-115 -151 0
-116 -152 0
-117 -121 0
-118 -122 0
-119 -123 0
-120 -124 0
-117 -153 0
-118 -154 0
-119 -155 0
-120 -156 0
-121 -125 0
-122 -126 0
-123 -127 0
-124 -128 0
-121 -157 0
-122 -158 0
-123 -159 0
-124 -160 0
-125 -129 0
-126 -130 0
-127 -131 0
-128 -132 0
-125 -161 0
-126 -162 0
-127 -163 0
-128 -164 0
-129 -133 0
-130 -134 0
-131 -135 0
-132 -136 0
-129 -165 0
-130 -166 0
-131 -167 0
-132 -168 0
-133 -137 0
-134 -138 0
-135 -139 0
-136 -140 0
-133 -169 0
-134 -170 0
-135 -171 0
-136 -172 0
-137 -141 0
-138 -142 0
-139 -143 0
-140 -144 0
-137 -173 0
-138 -174 0
-139 -175 0
-140 -176 0
-141 -177 0
-142 -178 0
-143 -179 0
-144 -180 0
-145 -149 0
-146 -150 0
-147 -151 0
-148 -152 0
-145 -181 0
-146 -182 0
-147 -183 0
-148 -184 0
-149 -153 0
-150 -154 0
-151 -155 0
-152 -156 0
-149 -185 0
-150 -186 0
-151 -187 0
-152 -188 0
-153 -157 0
-154 -158 0
-155 -159 0
-156 -160 0
-153 -189 0
-154 -190 0
-155 -191 0
-156 -192 0
-157 -161 0
-158 -162 0
-159 -163 0
-160 -164 0
-157 -193 0
-158 -194 0
-159 -195 0
-160 -196 0
-161 -165 0
-162 -166 0
-163 -167 0
-164 -168 0
-161 -197 0
-162 -198 0
-163 -199 0
-164 -200 0
-165 -169 0
-166 -170 0
-167 -171 0
-168 -172 0
-165 -201 0
-166 -202 0
-167 -203 0
-168 -204 0
-169 -173 0
-170 -174 0
-171 -175 0
-172 -176 0
-169 -205 0
-170 -206 0
-171 -207 0
-172 -208 0
-173 -177 0
-174 -178 0
-175 -179 0
-176 -180 0
-173 -209 0
-174 -210 0
-175 -211 0
-176 -212 0
-177 -213 0
-178 -214 0
-179 -215 0
-180 -216 0
-181 -185 0
-182 -186 0
-183 -187 0
-184 -188 0
-181 -217 0
-182 -218 0
-183 -219 0
-184 -220 0
-185 -189 0
-186 -190 0
-187 -191 0
-188 -192 0
-185 -221 0
-186 -222 0
-187 -223 0
-188 -224 0
-189 -193 0
-190 -194 0
-191 -195 0
-192 -196 0
-189 -225 0
-190 -226 0
-191 -227 0
-192 -228 0
-193 -197 0
-194 -198 0
-195 -199 0
-196 -200 0
-193 -229 0
-194 -230 0
-195 -231 0
-196 -232 0
-197 -201 0
-198 -202 0
-199 -203 0
-200 -204 0
-197 -233 0
-198 -234 0
-199 -235 0
-200 -236 0
-201 -205 0
-202 -206 0
-203 -207 0
-204 -208 0
-201 -237 0
-202 -238 0
-203 -239 0
-204 -240 0
-205 -209 0
-206 -210 0
-207 -211 0
-208 -212 0
-205 -241 0
-206 -242 0
-207 -243 0
-208 -244 0
-209 -213 0
-210 -214 0
-211 -215 0
-212 -216 0
-209 -245 0
-210 -246 0
-211 -247 0
-212 -248 0
-213 -249 0
-214 -250 0
-215 -251 0
-216 -252 0
-217 -221 0
-218 -222 0
-219 -223 0
-220 -224 0
-217 -253 0
-218 -254 0
-219 -255 0
-220 -256 0
-221 -225 0
-222 -226 0
-223 -227 0
-224 -228 0
-221 -257 0
-222 -258 0
-223 -259 0
-224 -260 0
-225 -229 0
-226 -230 0
-227 -231 0
-228 -232 0
-225 -261 0
-226 -262 0
-227 -263 0
-228 -264 0
-229 -233 0
-230 -234 0
-231 -235 0
-232 -236 0
-229 -265 0
-230 -266 0
-231 -267 0
-232 -268 0
-233 -237 0
-234 -238 0
-235 -239 0
-236 -240 0
-233 -269 0
-234 -270 0
-235 -271 0
-236 -272 0
-237 -241 0
-238 -242 0
-239 -243 0
-240 -244 0
-237 -273 0
-238 -274 0
-239 -275 0
-240 -276 0
-241 -245 0
-242 -246 0
-243 -247 0
-244 -248 0
-241 -277 0
-242 -278 0
-243 -279 0
-244 -280 0
-245 -249 0
-246 -250 0
-247 -251 0
-248 -252 0
-245 -281 0
-246 -282 0
-247 -283 0
-248 -284 0
-249 -285 0
-250 -286 0
-251 -287 0
-252 -288 0
-253 -257 0
-254 -258 0
-255 -259 0
-256 -260 0
-253 -289 0
-254 -290 0
-255 -291 0
-256 -292 0
-257 -261 0
-258 -262 0
-259 -263 0
-260 -264 0
-257 -293 0
-258 -294 0
-259 -295 0
-260 -296 0
-261 -265 0
-262 -266 0
-263 -267 0
-264 -268 0
-261 -297 0
-262 -298 0
-263 -299 0
-264 -300 0
-265 -269 0
-266 -270 0
-267 -271 0
-268 -272 0
-265 -301 0
-266 -302 0
-267 -303 0
-268 -304 0
-269 -273 0
-270 -274 0
-271 -275 0
-272 -276 0
-269 -305 0
-270 -306 0
-271 -307 0
-272 -308 0
-273 -277 0
-274 -278 0
-275 -279 0
-276 -280 0
-273 -309 0
-274 -310 0
-275 -311 0
-276 -312 0
-277 -281 0
-278 -282 0
-279 -283 0
-280 -284 0
-277 -313 0
-278 -314 0
-279 -315 0
-280 -316 0
-281 -285 0
-282 -286 0
-283 -287 0
-284 -288 0
-281 -317 0
-282 -318 0
-283 -319 0
-284 -320 0
-285 -321 0
-286 -322 0
-287 -323 0
-288 -324 0
-289 -293 0
-290 -294 0
-291 -295 0
-292 -296 0
-293 -297 0
-294 -298 0
-295 -299 0
-296 -300 0
-297 -301 0
-298 -302 0
-299 -303 0
-300 -304 0
-301 -305 0
-302 -306 0
-303 -307 0
-304 -308 0
-305 -309 0
-306 -310 0
-307 -311 0
-308 -312 0
-309 -313 0
-310 -314 0
-311 -315 0
-312 -316 0
-313 -317 0
-314 -318 0
-315 -319 0
-316 -320 0
-317 -321 0
-318 -322 0
-319 -323 0
-320 -324 0
